
Gurobi 11.0.3 (linux64) logging started Tue 19 Nov 2024 01:14:56 AM CST

Set parameter LogFile to value "/home/dlcole3/graph_abstraction/hierarchical_graphs/git_storage/CS1/HP_low_reserves/gurobi_logs/serial/logfile_ST29_7.log"

Gurobi 11.0.3 (linux64) logging started Tue 19 Nov 2024 01:29:44 AM CST

Set parameter LogFile to value "/home/dlcole3/graph_abstraction/hierarchical_graphs/git_storage/CS1/HP_low_reserves/gurobi_logs/serial/logfile_ST29_7.log"
Gurobi Optimizer version 11.0.3 build v11.0.3rc0 (linux64 - "Ubuntu 18.04.3 LTS")

CPU model: Intel(R) Xeon(R) CPU E5-2698 v4 @ 2.20GHz, instruction set [SSE2|AVX|AVX2]
Thread count: 40 physical cores, 80 logical processors, using up to 20 threads

Optimize a model with 29168 rows, 50688 columns and 136175 nonzeros
Model fingerprint: 0x4bcafb16
Variable types: 46944 continuous, 3744 integer (3744 binary)
Coefficient statistics:
  Matrix range     [6e-01, 2e+04]
  Objective range  [2e+00, 2e+04]
  Bounds range     [5e-02, 2e+05]
  RHS range        [4e-03, 7e+03]
Presolve removed 14296 rows and 38840 columns
Presolve time: 0.32s
Presolved: 14872 rows, 11848 columns, 63226 nonzeros
Variable types: 8847 continuous, 3001 integer (3001 binary)
Found heuristic solution: objective 235436.54648
Found heuristic solution: objective 211607.50454

Root relaxation: objective 4.211752e+04, 9229 iterations, 0.50 seconds (0.38 work units)

    Nodes    |    Current Node    |     Objective Bounds      |     Work
 Expl Unexpl |  Obj  Depth IntInf | Incumbent    BestBd   Gap | It/Node Time

     0     0 42117.5216    0   15 211607.505 42117.5216  80.1%     -    1s
H    0     0                    43674.862746 42117.5216  3.57%     -    1s
     0     0 42117.5216    0   15 43674.8627 42117.5216  3.57%     -    1s
     0     0 42117.5216    0   15 43674.8627 42117.5216  3.57%     -    2s
     0     0 42118.0100    0   11 43674.8627 42118.0100  3.56%     -    2s
H    0     0                    43674.862441 42118.0100  3.56%     -    3s
     0     0 42118.0100    0   11 43674.8624 42118.0100  3.56%     -    3s
     0     2 42118.0100    0   11 43674.8624 42118.0100  3.56%     -    3s
H   34    43                    43401.968001 42120.7869  2.95%  21.2    3s
H   87    91                    43401.967973 42396.5503  2.32%  12.7    3s
H   88    91                    43401.967946 42396.5503  2.32%  13.4    3s
H   89    91                    43401.967717 42396.5503  2.32%  14.0    3s
H   94    91                    43401.967642 42396.5503  2.32%  13.5    3s
H   97    91                    43401.967511 42396.5503  2.32%  13.2    3s
H  205   225                    42690.165344 42398.4965  0.68%   8.5    4s
H  344   253                    42689.480413 42398.4965  0.68%   6.7    4s
H  348   253                    42551.880478 42398.4965  0.36%   6.7    4s
H  357   253                    42482.292018 42398.4965  0.20%   6.7    4s
H  363   253                    42436.525777 42398.4965  0.09%   6.6    4s

Explored 383 nodes (18799 simplex iterations) in 4.23 seconds (2.86 work units)
Thread count was 20 (of 80 available processors)

Solution count 10: 42436.5 42436.5 42482.3 ... 235437

Optimal solution found (tolerance 3.00e-03)
Best objective 4.243652577701e+04, best bound 4.239849653407e+04, gap 0.0896%

User-callback calls 2446, time in user-callback 0.00 sec
